\ENCODING=ISO-8859-1
\Problem name: MOMKP_p3_n500_m3_ins1

Maximize
 obj:
Subject To
 c1:	49 x1 + 769 x2 + 902 x3 + 17 x4 + 480 x5 + 70 x6 + 301 x7 + 35 x8 + 637 x9 + 242 x10 + 509 x11 + 606 x12 + 266 x13 + 332 x14 + 597 x15 + 550 x16 + 245 x17 + 390 x18 + 52 x19 + 290 x20 + 834 x21 + 365 x22 + 9 x23 + 841 x24 + 965 x25 + 232 x26 + 292 x27 + 546 x28 + 107 x29 + 357 x30 + 497 x31 + 816 x32 + 266 x33 + 281 x34 + 935 x35 + 726 x36 + 702 x37 + 967 x38 + 636 x39 + 127 x40 + 269 x41 + 578 x42 + 859 x43 + 673 x44 + 629 x45 + 846 x46 + 880 x47 + 171 x48 + 332 x49 + 396 x50 + 451 x51 + 357 x52 + 240 x53 + 796 x54 + 100 x55 + 350 x56 + 513 x57 + 696 x58 + 790 x59 + 748 x60 + 732 x61 + 254 x62 + 822 x63 + 271 x64 + 273 x65 + 23 x66 + 406 x67 + 575 x68 + 367 x69 + 638 x70 + 29 x71 + 888 x72 + 510 x73 + 851 x74 + 890 x75 + 859 x76 + 13 x77 + 488 x78 + 361 x79 + 127 x80 + 77 x81 + 275 x82 + 916 x83 + 695 x84 + 94 x85 + 6 x86 + 102 x87 + 525 x88 + 9 x89 + 483 x90 + 436 x91 + 911 x92 + 245 x93 + 924 x94 + 509 x95 + 50 x96 + 302 x97 + 562 x98 + 196 x99 + 813 x100 + 923 x101 + 468 x102 + 291 x103 + 391 x104 + 263 x105 + 539 x106 + 122 x107 + 795 x108 + 554 x109 + 348 x110 + 664 x111 + 434 x112 + 784 x113 + 77 x114 + 264 x115 + 441 x116 + 875 x117 + 979 x118 + 648 x119 + 286 x120 + 116 x121 + 867 x122 + 839 x123 + 173 x124 + 432 x125 + 207 x126 + 157 x127 + 168 x128 + 961 x129 + 660 x130 + 128 x131 + 766 x132 + 882 x133 + 810 x134 + 716 x135 + 939 x136 + 879 x137 + 243 x138 + 18 x139 + 121 x140 + 684 x141 + 16 x142 + 436 x143 + 108 x144 + 973 x145 + 432 x146 + 23 x147 + 812 x148 + 126 x149 + 738 x150 + 466 x151 + 479 x152 + 412 x153 + 238 x154 + 478 x155 + 214 x156 + 908 x157 + 447 x158 + 463 x159 + 569 x160 + 914 x161 + 355 x162 + 131 x163 + 5 x164 + 356 x165 + 54 x166 + 624 x167 + 460 x168 + 696 x169 + 379 x170 + 610 x171 + 325 x172 + 203 x173 + 357 x174 + 581 x175 + 254 x176 + 612 x177 + 93 x178 + 56 x179 + 800 x180 + 529 x181 + 277 x182 + 3 x183 + 186 x184 + 456 x185 + 645 x186 + 778 x187 + 24 x188 + 888 x189 + 723 x190 + 610 x191 + 589 x192 + 737 x193 + 112 x194 + 540 x195 + 479 x196 + 289 x197 + 561 x198 + 360 x199 + 114 x200 + 265 x201 + 323 x202 + 644 x203 + 904 x204 + 976 x205 + 667 x206 + 332 x207 + 511 x208 + 118 x209 + 468 x210 + 172 x211 + 11 x212 + 523 x213 + 554 x214 + 268 x215 + 110 x216 + 792 x217 + 415 x218 + 35 x219 + 677 x220 + 654 x221 + 852 x222 + 39 x223 + 565 x224 + 686 x225 + 747 x226 + 100 x227 + 150 x228 + 458 x229 + 426 x230 + 828 x231 + 918 x232 + 50 x233 + 962 x234 + 733 x235 + 969 x236 + 465 x237 + 281 x238 + 409 x239 + 608 x240 + 657 x241 + 549 x242 + 282 x243 + 527 x244 + 451 x245 + 802 x246 + 988 x247 + 652 x248 + 876 x249 + 838 x250 + 416 x251 + 252 x252 + 317 x253 + 154 x254 + 518 x255 + 224 x256 + 538 x257 + 196 x258 + 194 x259 + 289 x260 + 469 x261 + 19 x262 + 419 x263 + 423 x264 + 803 x265 + 378 x266 + 136 x267 + 872 x268 + 431 x269 + 505 x270 + 555 x271 + 735 x272 + 846 x273 + 216 x274 + 11 x275 + 811 x276 + 491 x277 + 757 x278 + 988 x279 + 906 x280 + 148 x281 + 248 x282 + 34 x283 + 910 x284 + 589 x285 + 221 x286 + 302 x287 + 455 x288 + 515 x289 + 746 x290 + 615 x291 + 712 x292 + 531 x293 + 138 x294 + 781 x295 + 502 x296 + 420 x297 + 1 x298 + 283 x299 + 814 x300 + 539 x301 + 913 x302 + 539 x303 + 782 x304 + 214 x305 + 164 x306 + 318 x307 + 568 x308 + 346 x309 + 355 x310 + 44 x311 + 363 x312 + 264 x313 + 406 x314 + 872 x315 + 890 x316 + 14 x317 + 309 x318 + 903 x319 + 840 x320 + 522 x321 + 342 x322 + 563 x323 + 316 x324 + 917 x325 + 160 x326 + 124 x327 + 26 x328 + 781 x329 + 848 x330 + 246 x331 + 538 x332 + 979 x333 + 282 x334 + 920 x335 + 797 x336 + 575 x337 + 282 x338 + 108 x339 + 349 x340 + 624 x341 + 803 x342 + 491 x343 + 972 x344 + 97 x345 + 888 x346 + 323 x347 + 440 x348 + 736 x349 + 481 x350 + 627 x351 + 429 x352 + 680 x353 + 744 x354 + 341 x355 + 308 x356 + 265 x357 + 125 x358 + 677 x359 + 27 x360 + 983 x361 + 359 x362 + 970 x363 + 564 x364 + 545 x365 + 660 x366 + 747 x367 + 755 x368 + 658 x369 + 274 x370 + 388 x371 + 482 x372 + 229 x373 + 814 x374 + 457 x375 + 383 x376 + 965 x377 + 926 x378 + 418 x379 + 888 x380 + 731 x381 + 770 x382 + 335 x383 + 894 x384 + 627 x385 + 368 x386 + 430 x387 + 136 x388 + 281 x389 + 345 x390 + 163 x391 + 465 x392 + 104 x393 + 21 x394 + 575 x395 + 797 x396 + 395 x397 + 830 x398 + 860 x399 + 327 x400 + 176 x401 + 732 x402 + 111 x403 + 375 x404 + 665 x405 + 301 x406 + 559 x407 + 99 x408 + 405 x409 + 103 x410 + 366 x411 + 875 x412 + 271 x413 + 712 x414 + 846 x415 + 369 x416 + 381 x417 + 214 x418 + 485 x419 + 401 x420 + 732 x421 + 403 x422 + 860 x423 + 229 x424 + 369 x425 + 516 x426 + 820 x427 + 844 x428 + 755 x429 + 314 x430 + 890 x431 + 116 x432 + 520 x433 + 600 x434 + 333 x435 + 213 x436 + 269 x437 + 445 x438 + 437 x439 + 624 x440 + 402 x441 + 357 x442 + 478 x443 + 48 x444 + 764 x445 + 579 x446 + 70 x447 + 152 x448 + 477 x449 + 938 x450 + 267 x451 + 406 x452 + 289 x453 + 84 x454 + 304 x455 + 902 x456 + 291 x457 + 570 x458 + 106 x459 + 929 x460 + 144 x461 + 134 x462 + 726 x463 + 111 x464 + 65 x465 + 941 x466 + 53 x467 + 27 x468 + 207 x469 + 937 x470 + 290 x471 + 391 x472 + 922 x473 + 510 x474 + 243 x475 + 440 x476 + 682 x477 + 379 x478 + 871 x479 + 2 x480 + 130 x481 + 547 x482 + 712 x483 + 607 x484 + 618 x485 + 677 x486 + 56 x487 + 460 x488 + 524 x489 + 568 x490 + 776 x491 + 821 x492 + 985 x493 + 283 x494 + 511 x495 + 538 x496 + 405 x497 + 476 x498 + 376 x499 + 90 x500 <= 118927.500000000000000
 c2:	480 x1 + 664 x2 + 39 x3 + 455 x4 + 382 x5 + 507 x6 + 789 x7 + 553 x8 + 330 x9 + 88 x10 + 210 x11 + 72 x12 + 310 x13 + 634 x14 + 395 x15 + 164 x16 + 822 x17 + 972 x18 + 700 x19 + 112 x20 + 246 x21 + 14 x22 + 743 x23 + 831 x24 + 1000 x25 + 793 x26 + 949 x27 + 781 x28 + 811 x29 + 973 x30 + 349 x31 + 56 x32 + 457 x33 + 553 x34 + 931 x35 + 336 x36 + 647 x37 + 643 x38 + 651 x39 + 509 x40 + 610 x41 + 257 x42 + 998 x43 + 441 x44 + 128 x45 + 215 x46 + 532 x47 + 390 x48 + 997 x49 + 497 x50 + 611 x51 + 689 x52 + 543 x53 + 532 x54 + 630 x55 + 351 x56 + 508 x57 + 360 x58 + 234 x59 + 382 x60 + 75 x61 + 856 x62 + 125 x63 + 823 x64 + 800 x65 + 733 x66 + 703 x67 + 19 x68 + 564 x69 + 336 x70 + 774 x71 + 204 x72 + 260 x73 + 335 x74 + 245 x75 + 421 x76 + 448 x77 + 890 x78 + 748 x79 + 836 x80 + 143 x81 + 518 x82 + 886 x83 + 255 x84 + 257 x85 + 561 x86 + 934 x87 + 781 x88 + 661 x89 + 255 x90 + 116 x91 + 351 x92 + 901 x93 + 437 x94 + 799 x95 + 367 x96 + 774 x97 + 604 x98 + 883 x99 + 343 x100 + 196 x101 + 120 x102 + 205 x103 + 844 x104 + 846 x105 + 810 x106 + 908 x107 + 181 x108 + 118 x109 + 379 x110 + 307 x111 + 367 x112 + 556 x113 + 33 x114 + 716 x115 + 267 x116 + 139 x117 + 735 x118 + 327 x119 + 138 x120 + 675 x121 + 952 x122 + 835 x123 + 855 x124 + 441 x125 + 612 x126 + 572 x127 + 206 x128 + 244 x129 + 302 x130 + 486 x131 + 380 x132 + 57 x133 + 421 x134 + 937 x135 + 183 x136 + 770 x137 + 906 x138 + 277 x139 + 887 x140 + 666 x141 + 753 x142 + 880 x143 + 694 x144 + 132 x145 + 316 x146 + 782 x147 + 108 x148 + 461 x149 + 732 x150 + 584 x151 + 445 x152 + 134 x153 + 657 x154 + 192 x155 + 223 x156 + 367 x157 + 396 x158 + 52 x159 + 942 x160 + 369 x161 + 931 x162 + 625 x163 + 131 x164 + 338 x165 + 245 x166 + 601 x167 + 53 x168 + 30 x169 + 350 x170 + 128 x171 + 334 x172 + 68 x173 + 509 x174 + 548 x175 + 769 x176 + 367 x177 + 605 x178 + 251 x179 + 626 x180 + 638 x181 + 657 x182 + 658 x183 + 39 x184 + 223 x185 + 851 x186 + 707 x187 + 13 x188 + 263 x189 + 694 x190 + 22 x191 + 719 x192 + 212 x193 + 866 x194 + 595 x195 + 754 x196 + 751 x197 + 721 x198 + 702 x199 + 60 x200 + 692 x201 + 840 x202 + 797 x203 + 7 x204 + 284 x205 + 423 x206 + 262 x207 + 160 x208 + 285 x209 + 876 x210 + 388 x211 + 829 x212 + 376 x213 + 197 x214 + 908 x215 + 567 x216 + 652 x217 + 214 x218 + 227 x219 + 411 x220 + 929 x221 + 762 x222 + 906 x223 + 455 x224 + 367 x225 + 988 x226 + 21 x227 + 108 x228 + 920 x229 + 96 x230 + 920 x231 + 126 x232 + 419 x233 + 342 x234 + 338 x235 + 860 x236 + 490 x237 + 231 x238 + 151 x239 + 444 x240 + 351 x241 + 611 x242 + 177 x243 + 654 x244 + 290 x245 + 930 x246 + 567 x247 + 989 x248 + 502 x249 + 697 x250 + 857 x251 + 65 x252 + 149 x253 + 440 x254 + 2 x255 + 152 x256 + 25 x257 + 609 x258 + 550 x259 + 206 x260 + 453 x261 + 276 x262 + 574 x263 + 482 x264 + 475 x265 + 25 x266 + 138 x267 + 236 x268 + 311 x269 + 949 x270 + 215 x271 + 276 x272 + 251 x273 + 793 x274 + 393 x275 + 964 x276 + 444 x277 + 14 x278 + 274 x279 + 809 x280 + 221 x281 + 758 x282 + 956 x283 + 782 x284 + 156 x285 + 527 x286 + 779 x287 + 121 x288 + 210 x289 + 849 x290 + 855 x291 + 762 x292 + 942 x293 + 747 x294 + 625 x295 + 673 x296 + 420 x297 + 329 x298 + 835 x299 + 407 x300 + 817 x301 + 784 x302 + 861 x303 + 856 x304 + 578 x305 + 141 x306 + 69 x307 + 552 x308 + 886 x309 + 499 x310 + 846 x311 + 844 x312 + 18 x313 + 819 x314 + 677 x315 + 602 x316 + 628 x317 + 337 x318 + 584 x319 + 219 x320 + 546 x321 + 28 x322 + 327 x323 + 647 x324 + 891 x325 + 582 x326 + 440 x327 + 786 x328 + 182 x329 + 429 x330 + 326 x331 + 342 x332 + 65 x333 + 530 x334 + 673 x335 + 465 x336 + 757 x337 + 576 x338 + 796 x339 + 905 x340 + 649 x341 + 87 x342 + 435 x343 + 221 x344 + 771 x345 + 273 x346 + 427 x347 + 653 x348 + 230 x349 + 604 x350 + 703 x351 + 845 x352 + 257 x353 + 738 x354 + 455 x355 + 197 x356 + 20 x357 + 45 x358 + 796 x359 + 453 x360 + 289 x361 + 7 x362 + 298 x363 + 936 x364 + 328 x365 + 561 x366 + 572 x367 + 390 x368 + 506 x369 + 826 x370 + 655 x371 + 671 x372 + 675 x373 + 762 x374 + 672 x375 + 76 x376 + 890 x377 + 320 x378 + 175 x379 + 64 x380 + 843 x381 + 185 x382 + 760 x383 + 479 x384 + 95 x385 + 538 x386 + 983 x387 + 909 x388 + 569 x389 + 448 x390 + 108 x391 + 154 x392 + 565 x393 + 709 x394 + 695 x395 + 245 x396 + 556 x397 + 446 x398 + 190 x399 + 999 x400 + 683 x401 + 819 x402 + 517 x403 + 194 x404 + 661 x405 + 702 x406 + 757 x407 + 162 x408 + 614 x409 + 359 x410 + 376 x411 + 122 x412 + 257 x413 + 288 x414 + 324 x415 + 145 x416 + 716 x417 + 493 x418 + 374 x419 + 206 x420 + 923 x421 + 758 x422 + 665 x423 + 842 x424 + 434 x425 + 688 x426 + 23 x427 + 558 x428 + 455 x429 + 800 x430 + 30 x431 + 741 x432 + 207 x433 + 754 x434 + 279 x435 + 747 x436 + 751 x437 + 433 x438 + 604 x439 + 6 x440 + 86 x441 + 296 x442 + 511 x443 + 43 x444 + 786 x445 + 240 x446 + 371 x447 + 644 x448 + 72 x449 + 635 x450 + 421 x451 + 673 x452 + 448 x453 + 65 x454 + 930 x455 + 620 x456 + 152 x457 + 368 x458 + 736 x459 + 18 x460 + 640 x461 + 665 x462 + 5 x463 + 71 x464 + 293 x465 + 32 x466 + 93 x467 + 993 x468 + 770 x469 + 69 x470 + 994 x471 + 680 x472 + 444 x473 + 1 x474 + 852 x475 + 972 x476 + 421 x477 + 491 x478 + 212 x479 + 391 x480 + 715 x481 + 36 x482 + 939 x483 + 124 x484 + 498 x485 + 39 x486 + 544 x487 + 65 x488 + 111 x489 + 837 x490 + 154 x491 + 769 x492 + 478 x493 + 127 x494 + 131 x495 + 525 x496 + 831 x497 + 94 x498 + 670 x499 + 828 x500 <= 121553.500000000000000
 c3:	292 x1 + 608 x2 + 586 x3 + 336 x4 + 727 x5 + 619 x6 + 926 x7 + 979 x8 + 369 x9 + 71 x10 + 639 x11 + 274 x12 + 262 x13 + 735 x14 + 1 x15 + 769 x16 + 103 x17 + 9 x18 + 483 x19 + 368 x20 + 696 x21 + 526 x22 + 318 x23 + 812 x24 + 19 x25 + 467 x26 + 135 x27 + 184 x28 + 468 x29 + 577 x30 + 674 x31 + 77 x32 + 111 x33 + 939 x34 + 977 x35 + 671 x36 + 271 x37 + 30 x38 + 54 x39 + 603 x40 + 56 x41 + 205 x42 + 14 x43 + 334 x44 + 463 x45 + 510 x46 + 934 x47 + 744 x48 + 745 x49 + 886 x50 + 898 x51 + 497 x52 + 961 x53 + 764 x54 + 524 x55 + 914 x56 + 62 x57 + 781 x58 + 617 x59 + 975 x60 + 988 x61 + 628 x62 + 402 x63 + 187 x64 + 930 x65 + 533 x66 + 642 x67 + 924 x68 + 548 x69 + 82 x70 + 579 x71 + 233 x72 + 585 x73 + 165 x74 + 175 x75 + 82 x76 + 832 x77 + 103 x78 + 627 x79 + 111 x80 + 422 x81 + 240 x82 + 118 x83 + 732 x84 + 259 x85 + 688 x86 + 395 x87 + 699 x88 + 319 x89 + 821 x90 + 818 x91 + 298 x92 + 471 x93 + 430 x94 + 798 x95 + 838 x96 + 204 x97 + 752 x98 + 227 x99 + 416 x100 + 790 x101 + 663 x102 + 102 x103 + 263 x104 + 580 x105 + 111 x106 + 530 x107 + 878 x108 + 783 x109 + 67 x110 + 456 x111 + 400 x112 + 48 x113 + 453 x114 + 574 x115 + 130 x116 + 775 x117 + 400 x118 + 275 x119 + 255 x120 + 254 x121 + 155 x122 + 618 x123 + 169 x124 + 597 x125 + 62 x126 + 437 x127 + 639 x128 + 839 x129 + 306 x130 + 484 x131 + 242 x132 + 901 x133 + 628 x134 + 479 x135 + 476 x136 + 577 x137 + 90 x138 + 432 x139 + 627 x140 + 798 x141 + 386 x142 + 124 x143 + 530 x144 + 750 x145 + 335 x146 + 875 x147 + 362 x148 + 292 x149 + 508 x150 + 838 x151 + 831 x152 + 779 x153 + 6 x154 + 840 x155 + 917 x156 + 646 x157 + 949 x158 + 616 x159 + 589 x160 + 954 x161 + 796 x162 + 343 x163 + 810 x164 + 313 x165 + 34 x166 + 893 x167 + 353 x168 + 96 x169 + 736 x170 + 408 x171 + 776 x172 + 187 x173 + 315 x174 + 288 x175 + 118 x176 + 640 x177 + 508 x178 + 268 x179 + 340 x180 + 425 x181 + 822 x182 + 241 x183 + 370 x184 + 486 x185 + 719 x186 + 413 x187 + 877 x188 + 730 x189 + 947 x190 + 655 x191 + 152 x192 + 885 x193 + 406 x194 + 137 x195 + 840 x196 + 58 x197 + 745 x198 + 16 x199 + 301 x200 + 105 x201 + 567 x202 + 555 x203 + 853 x204 + 328 x205 + 848 x206 + 163 x207 + 475 x208 + 510 x209 + 485 x210 + 410 x211 + 824 x212 + 624 x213 + 956 x214 + 903 x215 + 513 x216 + 487 x217 + 223 x218 + 672 x219 + 466 x220 + 25 x221 + 648 x222 + 897 x223 + 720 x224 + 415 x225 + 744 x226 + 77 x227 + 365 x228 + 1000 x229 + 825 x230 + 545 x231 + 656 x232 + 788 x233 + 224 x234 + 681 x235 + 163 x236 + 732 x237 + 711 x238 + 758 x239 + 537 x240 + 135 x241 + 897 x242 + 829 x243 + 119 x244 + 936 x245 + 727 x246 + 798 x247 + 290 x248 + 38 x249 + 867 x250 + 362 x251 + 178 x252 + 308 x253 + 684 x254 + 246 x255 + 846 x256 + 778 x257 + 465 x258 + 544 x259 + 960 x260 + 603 x261 + 377 x262 + 200 x263 + 914 x264 + 546 x265 + 467 x266 + 233 x267 + 89 x268 + 206 x269 + 137 x270 + 336 x271 + 473 x272 + 509 x273 + 266 x274 + 228 x275 + 305 x276 + 472 x277 + 687 x278 + 926 x279 + 664 x280 + 916 x281 + 286 x282 + 867 x283 + 751 x284 + 721 x285 + 886 x286 + 559 x287 + 9 x288 + 958 x289 + 883 x290 + 797 x291 + 746 x292 + 396 x293 + 171 x294 + 492 x295 + 36 x296 + 993 x297 + 871 x298 + 532 x299 + 559 x300 + 928 x301 + 94 x302 + 418 x303 + 377 x304 + 536 x305 + 694 x306 + 952 x307 + 76 x308 + 714 x309 + 428 x310 + 776 x311 + 824 x312 + 575 x313 + 71 x314 + 978 x315 + 537 x316 + 937 x317 + 592 x318 + 556 x319 + 922 x320 + 617 x321 + 196 x322 + 498 x323 + 921 x324 + 273 x325 + 549 x326 + 422 x327 + 909 x328 + 426 x329 + 205 x330 + 841 x331 + 278 x332 + 601 x333 + 285 x334 + 547 x335 + 507 x336 + 174 x337 + 638 x338 + 752 x339 + 370 x340 + 437 x341 + 206 x342 + 396 x343 + 356 x344 + 688 x345 + 629 x346 + 128 x347 + 430 x348 + 997 x349 + 640 x350 + 140 x351 + 384 x352 + 868 x353 + 653 x354 + 487 x355 + 231 x356 + 196 x357 + 288 x358 + 318 x359 + 45 x360 + 894 x361 + 822 x362 + 761 x363 + 564 x364 + 833 x365 + 920 x366 + 596 x367 + 279 x368 + 224 x369 + 978 x370 + 485 x371 + 202 x372 + 17 x373 + 852 x374 + 321 x375 + 3 x376 + 144 x377 + 489 x378 + 156 x379 + 336 x380 + 771 x381 + 607 x382 + 544 x383 + 963 x384 + 575 x385 + 694 x386 + 709 x387 + 964 x388 + 955 x389 + 668 x390 + 459 x391 + 957 x392 + 123 x393 + 656 x394 + 836 x395 + 748 x396 + 296 x397 + 173 x398 + 389 x399 + 108 x400 + 310 x401 + 178 x402 + 486 x403 + 669 x404 + 430 x405 + 400 x406 + 416 x407 + 973 x408 + 277 x409 + 299 x410 + 774 x411 + 775 x412 + 733 x413 + 804 x414 + 23 x415 + 619 x416 + 50 x417 + 574 x418 + 516 x419 + 718 x420 + 176 x421 + 9 x422 + 221 x423 + 548 x424 + 827 x425 + 836 x426 + 249 x427 + 467 x428 + 958 x429 + 261 x430 + 77 x431 + 266 x432 + 432 x433 + 53 x434 + 892 x435 + 641 x436 + 485 x437 + 848 x438 + 496 x439 + 403 x440 + 409 x441 + 827 x442 + 640 x443 + 41 x444 + 650 x445 + 513 x446 + 90 x447 + 473 x448 + 286 x449 + 207 x450 + 203 x451 + 639 x452 + 618 x453 + 294 x454 + 701 x455 + 650 x456 + 396 x457 + 537 x458 + 824 x459 + 443 x460 + 924 x461 + 832 x462 + 533 x463 + 721 x464 + 111 x465 + 77 x466 + 318 x467 + 536 x468 + 820 x469 + 237 x470 + 474 x471 + 588 x472 + 539 x473 + 728 x474 + 512 x475 + 976 x476 + 425 x477 + 820 x478 + 513 x479 + 108 x480 + 25 x481 + 87 x482 + 635 x483 + 718 x484 + 32 x485 + 316 x486 + 787 x487 + 560 x488 + 976 x489 + 593 x490 + 794 x491 + 403 x492 + 128 x493 + 574 x494 + 956 x495 + 674 x496 + 545 x497 + 304 x498 + 253 x499 + 618 x500 <= 127190.500000000000000
Bounds
 0 <= x1 <= 1
 0 <= x2 <= 1
 0 <= x3 <= 1
 0 <= x4 <= 1
 0 <= x5 <= 1
 0 <= x6 <= 1
 0 <= x7 <= 1
 0 <= x8 <= 1
 0 <= x9 <= 1
 0 <= x10 <= 1
 0 <= x11 <= 1
 0 <= x12 <= 1
 0 <= x13 <= 1
 0 <= x14 <= 1
 0 <= x15 <= 1
 0 <= x16 <= 1
 0 <= x17 <= 1
 0 <= x18 <= 1
 0 <= x19 <= 1
 0 <= x20 <= 1
 0 <= x21 <= 1
 0 <= x22 <= 1
 0 <= x23 <= 1
 0 <= x24 <= 1
 0 <= x25 <= 1
 0 <= x26 <= 1
 0 <= x27 <= 1
 0 <= x28 <= 1
 0 <= x29 <= 1
 0 <= x30 <= 1
 0 <= x31 <= 1
 0 <= x32 <= 1
 0 <= x33 <= 1
 0 <= x34 <= 1
 0 <= x35 <= 1
 0 <= x36 <= 1
 0 <= x37 <= 1
 0 <= x38 <= 1
 0 <= x39 <= 1
 0 <= x40 <= 1
 0 <= x41 <= 1
 0 <= x42 <= 1
 0 <= x43 <= 1
 0 <= x44 <= 1
 0 <= x45 <= 1
 0 <= x46 <= 1
 0 <= x47 <= 1
 0 <= x48 <= 1
 0 <= x49 <= 1
 0 <= x50 <= 1
 0 <= x51 <= 1
 0 <= x52 <= 1
 0 <= x53 <= 1
 0 <= x54 <= 1
 0 <= x55 <= 1
 0 <= x56 <= 1
 0 <= x57 <= 1
 0 <= x58 <= 1
 0 <= x59 <= 1
 0 <= x60 <= 1
 0 <= x61 <= 1
 0 <= x62 <= 1
 0 <= x63 <= 1
 0 <= x64 <= 1
 0 <= x65 <= 1
 0 <= x66 <= 1
 0 <= x67 <= 1
 0 <= x68 <= 1
 0 <= x69 <= 1
 0 <= x70 <= 1
 0 <= x71 <= 1
 0 <= x72 <= 1
 0 <= x73 <= 1
 0 <= x74 <= 1
 0 <= x75 <= 1
 0 <= x76 <= 1
 0 <= x77 <= 1
 0 <= x78 <= 1
 0 <= x79 <= 1
 0 <= x80 <= 1
 0 <= x81 <= 1
 0 <= x82 <= 1
 0 <= x83 <= 1
 0 <= x84 <= 1
 0 <= x85 <= 1
 0 <= x86 <= 1
 0 <= x87 <= 1
 0 <= x88 <= 1
 0 <= x89 <= 1
 0 <= x90 <= 1
 0 <= x91 <= 1
 0 <= x92 <= 1
 0 <= x93 <= 1
 0 <= x94 <= 1
 0 <= x95 <= 1
 0 <= x96 <= 1
 0 <= x97 <= 1
 0 <= x98 <= 1
 0 <= x99 <= 1
 0 <= x100 <= 1
 0 <= x101 <= 1
 0 <= x102 <= 1
 0 <= x103 <= 1
 0 <= x104 <= 1
 0 <= x105 <= 1
 0 <= x106 <= 1
 0 <= x107 <= 1
 0 <= x108 <= 1
 0 <= x109 <= 1
 0 <= x110 <= 1
 0 <= x111 <= 1
 0 <= x112 <= 1
 0 <= x113 <= 1
 0 <= x114 <= 1
 0 <= x115 <= 1
 0 <= x116 <= 1
 0 <= x117 <= 1
 0 <= x118 <= 1
 0 <= x119 <= 1
 0 <= x120 <= 1
 0 <= x121 <= 1
 0 <= x122 <= 1
 0 <= x123 <= 1
 0 <= x124 <= 1
 0 <= x125 <= 1
 0 <= x126 <= 1
 0 <= x127 <= 1
 0 <= x128 <= 1
 0 <= x129 <= 1
 0 <= x130 <= 1
 0 <= x131 <= 1
 0 <= x132 <= 1
 0 <= x133 <= 1
 0 <= x134 <= 1
 0 <= x135 <= 1
 0 <= x136 <= 1
 0 <= x137 <= 1
 0 <= x138 <= 1
 0 <= x139 <= 1
 0 <= x140 <= 1
 0 <= x141 <= 1
 0 <= x142 <= 1
 0 <= x143 <= 1
 0 <= x144 <= 1
 0 <= x145 <= 1
 0 <= x146 <= 1
 0 <= x147 <= 1
 0 <= x148 <= 1
 0 <= x149 <= 1
 0 <= x150 <= 1
 0 <= x151 <= 1
 0 <= x152 <= 1
 0 <= x153 <= 1
 0 <= x154 <= 1
 0 <= x155 <= 1
 0 <= x156 <= 1
 0 <= x157 <= 1
 0 <= x158 <= 1
 0 <= x159 <= 1
 0 <= x160 <= 1
 0 <= x161 <= 1
 0 <= x162 <= 1
 0 <= x163 <= 1
 0 <= x164 <= 1
 0 <= x165 <= 1
 0 <= x166 <= 1
 0 <= x167 <= 1
 0 <= x168 <= 1
 0 <= x169 <= 1
 0 <= x170 <= 1
 0 <= x171 <= 1
 0 <= x172 <= 1
 0 <= x173 <= 1
 0 <= x174 <= 1
 0 <= x175 <= 1
 0 <= x176 <= 1
 0 <= x177 <= 1
 0 <= x178 <= 1
 0 <= x179 <= 1
 0 <= x180 <= 1
 0 <= x181 <= 1
 0 <= x182 <= 1
 0 <= x183 <= 1
 0 <= x184 <= 1
 0 <= x185 <= 1
 0 <= x186 <= 1
 0 <= x187 <= 1
 0 <= x188 <= 1
 0 <= x189 <= 1
 0 <= x190 <= 1
 0 <= x191 <= 1
 0 <= x192 <= 1
 0 <= x193 <= 1
 0 <= x194 <= 1
 0 <= x195 <= 1
 0 <= x196 <= 1
 0 <= x197 <= 1
 0 <= x198 <= 1
 0 <= x199 <= 1
 0 <= x200 <= 1
 0 <= x201 <= 1
 0 <= x202 <= 1
 0 <= x203 <= 1
 0 <= x204 <= 1
 0 <= x205 <= 1
 0 <= x206 <= 1
 0 <= x207 <= 1
 0 <= x208 <= 1
 0 <= x209 <= 1
 0 <= x210 <= 1
 0 <= x211 <= 1
 0 <= x212 <= 1
 0 <= x213 <= 1
 0 <= x214 <= 1
 0 <= x215 <= 1
 0 <= x216 <= 1
 0 <= x217 <= 1
 0 <= x218 <= 1
 0 <= x219 <= 1
 0 <= x220 <= 1
 0 <= x221 <= 1
 0 <= x222 <= 1
 0 <= x223 <= 1
 0 <= x224 <= 1
 0 <= x225 <= 1
 0 <= x226 <= 1
 0 <= x227 <= 1
 0 <= x228 <= 1
 0 <= x229 <= 1
 0 <= x230 <= 1
 0 <= x231 <= 1
 0 <= x232 <= 1
 0 <= x233 <= 1
 0 <= x234 <= 1
 0 <= x235 <= 1
 0 <= x236 <= 1
 0 <= x237 <= 1
 0 <= x238 <= 1
 0 <= x239 <= 1
 0 <= x240 <= 1
 0 <= x241 <= 1
 0 <= x242 <= 1
 0 <= x243 <= 1
 0 <= x244 <= 1
 0 <= x245 <= 1
 0 <= x246 <= 1
 0 <= x247 <= 1
 0 <= x248 <= 1
 0 <= x249 <= 1
 0 <= x250 <= 1
 0 <= x251 <= 1
 0 <= x252 <= 1
 0 <= x253 <= 1
 0 <= x254 <= 1
 0 <= x255 <= 1
 0 <= x256 <= 1
 0 <= x257 <= 1
 0 <= x258 <= 1
 0 <= x259 <= 1
 0 <= x260 <= 1
 0 <= x261 <= 1
 0 <= x262 <= 1
 0 <= x263 <= 1
 0 <= x264 <= 1
 0 <= x265 <= 1
 0 <= x266 <= 1
 0 <= x267 <= 1
 0 <= x268 <= 1
 0 <= x269 <= 1
 0 <= x270 <= 1
 0 <= x271 <= 1
 0 <= x272 <= 1
 0 <= x273 <= 1
 0 <= x274 <= 1
 0 <= x275 <= 1
 0 <= x276 <= 1
 0 <= x277 <= 1
 0 <= x278 <= 1
 0 <= x279 <= 1
 0 <= x280 <= 1
 0 <= x281 <= 1
 0 <= x282 <= 1
 0 <= x283 <= 1
 0 <= x284 <= 1
 0 <= x285 <= 1
 0 <= x286 <= 1
 0 <= x287 <= 1
 0 <= x288 <= 1
 0 <= x289 <= 1
 0 <= x290 <= 1
 0 <= x291 <= 1
 0 <= x292 <= 1
 0 <= x293 <= 1
 0 <= x294 <= 1
 0 <= x295 <= 1
 0 <= x296 <= 1
 0 <= x297 <= 1
 0 <= x298 <= 1
 0 <= x299 <= 1
 0 <= x300 <= 1
 0 <= x301 <= 1
 0 <= x302 <= 1
 0 <= x303 <= 1
 0 <= x304 <= 1
 0 <= x305 <= 1
 0 <= x306 <= 1
 0 <= x307 <= 1
 0 <= x308 <= 1
 0 <= x309 <= 1
 0 <= x310 <= 1
 0 <= x311 <= 1
 0 <= x312 <= 1
 0 <= x313 <= 1
 0 <= x314 <= 1
 0 <= x315 <= 1
 0 <= x316 <= 1
 0 <= x317 <= 1
 0 <= x318 <= 1
 0 <= x319 <= 1
 0 <= x320 <= 1
 0 <= x321 <= 1
 0 <= x322 <= 1
 0 <= x323 <= 1
 0 <= x324 <= 1
 0 <= x325 <= 1
 0 <= x326 <= 1
 0 <= x327 <= 1
 0 <= x328 <= 1
 0 <= x329 <= 1
 0 <= x330 <= 1
 0 <= x331 <= 1
 0 <= x332 <= 1
 0 <= x333 <= 1
 0 <= x334 <= 1
 0 <= x335 <= 1
 0 <= x336 <= 1
 0 <= x337 <= 1
 0 <= x338 <= 1
 0 <= x339 <= 1
 0 <= x340 <= 1
 0 <= x341 <= 1
 0 <= x342 <= 1
 0 <= x343 <= 1
 0 <= x344 <= 1
 0 <= x345 <= 1
 0 <= x346 <= 1
 0 <= x347 <= 1
 0 <= x348 <= 1
 0 <= x349 <= 1
 0 <= x350 <= 1
 0 <= x351 <= 1
 0 <= x352 <= 1
 0 <= x353 <= 1
 0 <= x354 <= 1
 0 <= x355 <= 1
 0 <= x356 <= 1
 0 <= x357 <= 1
 0 <= x358 <= 1
 0 <= x359 <= 1
 0 <= x360 <= 1
 0 <= x361 <= 1
 0 <= x362 <= 1
 0 <= x363 <= 1
 0 <= x364 <= 1
 0 <= x365 <= 1
 0 <= x366 <= 1
 0 <= x367 <= 1
 0 <= x368 <= 1
 0 <= x369 <= 1
 0 <= x370 <= 1
 0 <= x371 <= 1
 0 <= x372 <= 1
 0 <= x373 <= 1
 0 <= x374 <= 1
 0 <= x375 <= 1
 0 <= x376 <= 1
 0 <= x377 <= 1
 0 <= x378 <= 1
 0 <= x379 <= 1
 0 <= x380 <= 1
 0 <= x381 <= 1
 0 <= x382 <= 1
 0 <= x383 <= 1
 0 <= x384 <= 1
 0 <= x385 <= 1
 0 <= x386 <= 1
 0 <= x387 <= 1
 0 <= x388 <= 1
 0 <= x389 <= 1
 0 <= x390 <= 1
 0 <= x391 <= 1
 0 <= x392 <= 1
 0 <= x393 <= 1
 0 <= x394 <= 1
 0 <= x395 <= 1
 0 <= x396 <= 1
 0 <= x397 <= 1
 0 <= x398 <= 1
 0 <= x399 <= 1
 0 <= x400 <= 1
 0 <= x401 <= 1
 0 <= x402 <= 1
 0 <= x403 <= 1
 0 <= x404 <= 1
 0 <= x405 <= 1
 0 <= x406 <= 1
 0 <= x407 <= 1
 0 <= x408 <= 1
 0 <= x409 <= 1
 0 <= x410 <= 1
 0 <= x411 <= 1
 0 <= x412 <= 1
 0 <= x413 <= 1
 0 <= x414 <= 1
 0 <= x415 <= 1
 0 <= x416 <= 1
 0 <= x417 <= 1
 0 <= x418 <= 1
 0 <= x419 <= 1
 0 <= x420 <= 1
 0 <= x421 <= 1
 0 <= x422 <= 1
 0 <= x423 <= 1
 0 <= x424 <= 1
 0 <= x425 <= 1
 0 <= x426 <= 1
 0 <= x427 <= 1
 0 <= x428 <= 1
 0 <= x429 <= 1
 0 <= x430 <= 1
 0 <= x431 <= 1
 0 <= x432 <= 1
 0 <= x433 <= 1
 0 <= x434 <= 1
 0 <= x435 <= 1
 0 <= x436 <= 1
 0 <= x437 <= 1
 0 <= x438 <= 1
 0 <= x439 <= 1
 0 <= x440 <= 1
 0 <= x441 <= 1
 0 <= x442 <= 1
 0 <= x443 <= 1
 0 <= x444 <= 1
 0 <= x445 <= 1
 0 <= x446 <= 1
 0 <= x447 <= 1
 0 <= x448 <= 1
 0 <= x449 <= 1
 0 <= x450 <= 1
 0 <= x451 <= 1
 0 <= x452 <= 1
 0 <= x453 <= 1
 0 <= x454 <= 1
 0 <= x455 <= 1
 0 <= x456 <= 1
 0 <= x457 <= 1
 0 <= x458 <= 1
 0 <= x459 <= 1
 0 <= x460 <= 1
 0 <= x461 <= 1
 0 <= x462 <= 1
 0 <= x463 <= 1
 0 <= x464 <= 1
 0 <= x465 <= 1
 0 <= x466 <= 1
 0 <= x467 <= 1
 0 <= x468 <= 1
 0 <= x469 <= 1
 0 <= x470 <= 1
 0 <= x471 <= 1
 0 <= x472 <= 1
 0 <= x473 <= 1
 0 <= x474 <= 1
 0 <= x475 <= 1
 0 <= x476 <= 1
 0 <= x477 <= 1
 0 <= x478 <= 1
 0 <= x479 <= 1
 0 <= x480 <= 1
 0 <= x481 <= 1
 0 <= x482 <= 1
 0 <= x483 <= 1
 0 <= x484 <= 1
 0 <= x485 <= 1
 0 <= x486 <= 1
 0 <= x487 <= 1
 0 <= x488 <= 1
 0 <= x489 <= 1
 0 <= x490 <= 1
 0 <= x491 <= 1
 0 <= x492 <= 1
 0 <= x493 <= 1
 0 <= x494 <= 1
 0 <= x495 <= 1
 0 <= x496 <= 1
 0 <= x497 <= 1
 0 <= x498 <= 1
 0 <= x499 <= 1
 0 <= x500 <= 1
Binaries
 x1 x2 x3 x4 x5 x6 x7 x8 x9 x10 x11 x12 x13 x14 x15 x16 x17 x18 x19 x20 x21 x22 x23 x24 x25 x26 x27 x28 x29 x30 x31 x32 x33 x34 x35 x36 x37 x38 x39 x40 x41 x42 x43 x44 x45 x46 x47 x48 x49 x50 x51 x52 x53 x54 x55 x56 x57 x58 x59 x60 x61 x62 x63 x64 x65 x66 x67 x68 x69 x70 x71 x72 x73 x74 x75 x76 x77 x78 x79 x80 x81 x82 x83 x84 x85 x86 x87 x88 x89 x90 x91 x92 x93 x94 x95 x96 x97 x98 x99 x100 x101 x102 x103 x104 x105 x106 x107 x108 x109 x110 x111 x112 x113 x114 x115 x116 x117 x118 x119 x120 x121 x122 x123 x124 x125 x126 x127 x128 x129 x130 x131 x132 x133 x134 x135 x136 x137 x138 x139 x140 x141 x142 x143 x144 x145 x146 x147 x148 x149 x150 x151 x152 x153 x154 x155 x156 x157 x158 x159 x160 x161 x162 x163 x164 x165 x166 x167 x168 x169 x170 x171 x172 x173 x174 x175 x176 x177 x178 x179 x180 x181 x182 x183 x184 x185 x186 x187 x188 x189 x190 x191 x192 x193 x194 x195 x196 x197 x198 x199 x200 x201 x202 x203 x204 x205 x206 x207 x208 x209 x210 x211 x212 x213 x214 x215 x216 x217 x218 x219 x220 x221 x222 x223 x224 x225 x226 x227 x228 x229 x230 x231 x232 x233 x234 x235 x236 x237 x238 x239 x240 x241 x242 x243 x244 x245 x246 x247 x248 x249 x250 x251 x252 x253 x254 x255 x256 x257 x258 x259 x260 x261 x262 x263 x264 x265 x266 x267 x268 x269 x270 x271 x272 x273 x274 x275 x276 x277 x278 x279 x280 x281 x282 x283 x284 x285 x286 x287 x288 x289 x290 x291 x292 x293 x294 x295 x296 x297 x298 x299 x300 x301 x302 x303 x304 x305 x306 x307 x308 x309 x310 x311 x312 x313 x314 x315 x316 x317 x318 x319 x320 x321 x322 x323 x324 x325 x326 x327 x328 x329 x330 x331 x332 x333 x334 x335 x336 x337 x338 x339 x340 x341 x342 x343 x344 x345 x346 x347 x348 x349 x350 x351 x352 x353 x354 x355 x356 x357 x358 x359 x360 x361 x362 x363 x364 x365 x366 x367 x368 x369 x370 x371 x372 x373 x374 x375 x376 x377 x378 x379 x380 x381 x382 x383 x384 x385 x386 x387 x388 x389 x390 x391 x392 x393 x394 x395 x396 x397 x398 x399 x400 x401 x402 x403 x404 x405 x406 x407 x408 x409 x410 x411 x412 x413 x414 x415 x416 x417 x418 x419 x420 x421 x422 x423 x424 x425 x426 x427 x428 x429 x430 x431 x432 x433 x434 x435 x436 x437 x438 x439 x440 x441 x442 x443 x444 x445 x446 x447 x448 x449 x450 x451 x452 x453 x454 x455 x456 x457 x458 x459 x460 x461 x462 x463 x464 x465 x466 x467 x468 x469 x470 x471 x472 x473 x474 x475 x476 x477 x478 x479 x480 x481 x482 x483 x484 x485 x486 x487 x488 x489 x490 x491 x492 x493 x494 x495 x496 x497 x498 x499 x500
End